1000
125 125
1 100 13
2 100 87
3 100 62
4 100 881
5 100 30
6 100 161
7 100 290
8 100 586
9 100 480
10 100 742
11 100 375
12 100 799
13 100 924
14 100 375
15 100 617
16 99 253
17 99 151
18 99 514
19 99 915
20 99 943
21 99 449
22 99 642
23 99 675
24 99 487
25 98 670
26 98 991
27 98 119
28 98 912
29 98 751
30 98 91
31 97 673
32 97 287
33 97 988
34 97 562
35 97 423
36 97 216
37 97 626
38 97 158
39 97 415
40 97 643
41 97 940
42 97 402
43 97 104
44 96 912
45 96 351
46 96 113
47 96 260
48 96 28
49 96 731
50 96 884
51 96 106
52 96 177
53 96 5
54 96 146
55 96 590
56 96 336
57 95 335
58 95 533
59 95 454
60 95 509
61 95 995
62 95 526
63 95 711
64 95 165
65 95 67
66 95 602
67 94 308
68 94 133
69 94 456
70 94 765
71 94 646
72 94 429
73 94 348
74 94 294
75 94 462
76 94 933
77 94 336
78 94 354
79 94 869
80 94 95
81 94 153
82 94 462
83 94 540
84 93 923
85 93 62
86 93 53
87 93 39
88 93 3
89 93 403
90 93 122
91 93 5
92 93 62
93 93 477
94 93 570
95 93 349
96 92 635
97 92 738
98 92 363
99 92 781
100 92 33
101 92 946
102 92 848
103 92 622
104 92 253
105 92 721
106 92 939
107 92 568
108 92 149
109 92 223
110 91 480
111 91 642
112 91 854
113 91 569
114 91 441
115 91 660
116 91 686
117 91 983
118 91 730
119 91 887
120 91 260
121 90 918
122 90 180
123 90 439
124 90 886
125 90 18
126 90 814
127 90 687
128 90 963
129 90 361
130 90 460
131 90 36
132 90 598
133 90 945
134 90 574
135 90 79
136 90 701
137 89 236
138 89 301
139 89 711
140 89 432
141 89 221
142 89 43
143 89 823
144 89 288
145 89 200
146 89 700
147 89 10
148 89 305
149 89 461
150 89 863
151 89 763
152 89 95
153 89 415
154 88 148
155 88 315
156 88 18
157 88 618
158 88 798
159 88 585
160 88 216
161 88 381
162 88 235
163 88 626
164 88 805
165 88 690
166 88 381
167 87 853
168 87 539
169 87 545
170 87 654
171 87 840
172 87 353
173 87 740
174 87 981
175 87 766
176 87 689
177 87 128
178 87 381
179 86 418
180 86 34
181 86 243
182 86 697
183 86 459
184 86 221
185 86 283
186 86 464
187 86 461
188 86 240
189 85 44
190 85 736
191 85 439
192 85 804
193 85 31
194 85 633
195 85 500
196 85 307
197 85 458
198 85 472
199 84 319
200 84 258
201 84 389
202 84 910
203 84 128
204 84 802
205 84 604
206 84 236
207 84 383
208 84 669
209 84 346
210 84 299
211 84 483
212 84 181
213 84 76
214 84 275
215 84 823
216 83 903
217 83 453
218 83 848
219 83 927
220 83 329
221 83 950
222 83 920
223 83 201
224 83 512
225 83 692
226 83 83
227 83 643
228 83 789
229 83 595
230 83 910
231 83 804
232 83 706
233 83 921
234 83 263
235 83 915
236 83 336
237 82 3
238 82 867
239 82 69
240 82 602
241 82 745
242 82 286
243 82 621
244 82 335
245 82 493
246 82 772
247 82 652
248 82 38
249 82 248
250 82 892
251 82 236
252 82 265
253 82 423
254 81 817
255 81 41
256 81 475
257 81 62
258 81 134
259 80 947
260 80 952
261 80 999
262 80 609
263 80 910
264 80 839
265 80 203
266 80 697
267 80 731
268 79 410
269 79 582
270 79 896
271 79 202
272 79 874
273 79 644
274 79 26
275 78 17
276 78 940
277 78 495
278 78 222
279 78 735
280 78 64
281 78 651
282 78 9
283 78 805
284 78 114
285 78 579
286 78 674
287 77 945
288 77 55
289 77 698
290 77 556
291 77 399
292 77 996
293 77 481
294 77 840
295 77 730
296 77 753
297 77 279
298 77 989
299 77 796
300 77 651
301 77 424
302 77 817
303 76 32
304 76 668
305 76 953
306 76 196
307 76 758
308 76 291
309 76 712
310 76 105
311 76 962
312 76 846
313 76 767
314 76 717
315 76 158
316 76 882
317 76 244
318 76 7
319 76 438
320 75 922
321 75 172
322 75 75
323 75 717
324 75 569
325 75 842
326 75 406
327 75 504
328 75 865
329 75 157
330 75 372
331 75 333
332 75 457
333 75 799
334 75 693
335 74 12
336 74 349
337 74 343
338 74 296
339 74 90
340 74 26
341 74 572
342 74 587
343 74 302
344 74 592
345 73 763
346 73 777
347 73 360
348 73 661
349 73 708
350 73 268
351 73 892
352 73 17
353 73 964
354 73 379
355 73 583
356 73 239
357 73 578
358 73 396
359 72 255
360 72 225
361 72 177
362 72 556
363 72 665
364 72 952
365 72 803
366 72 895
367 72 178
368 72 345
369 72 981
370 72 38
371 72 430
372 72 227
373 72 887
374 72 481
375 72 618
376 72 669
377 72 814
378 71 704
379 71 516
380 71 184
381 71 713
382 71 886
383 71 165
384 71 459
385 71 424
386 71 508
387 71 34
388 71 522
389 71 572
390 71 188
391 71 905
392 71 868
393 71 261
394 71 961
395 71 921
396 70 894
397 70 504
398 70 184
399 70 117
400 70 926
401 70 842
402 70 576
403 70 86
404 70 903
405 70 937
406 70 460
407 70 429
408 70 944
409 70 197
410 69 169
411 69 191
412 69 20
413 69 189
414 69 705
415 69 556
416 69 546
417 69 960
418 69 438
419 69 425
420 69 230
421 68 407
422 68 899
423 68 670
424 68 35
425 68 5
426 68 622
427 68 842
428 68 834
429 68 291
430 68 533
431 68 350
432 68 474
433 68 212
434 68 815
435 68 433
436 67 861
437 67 807
438 67 802
439 67 467
440 67 697
441 67 297
442 67 689
443 67 447
444 67 489
445 67 532
446 67 546
447 67 578
448 66 532
449 66 419
450 66 101
451 66 557
452 66 0
453 66 963
454 66 331
455 66 195
456 66 65
457 66 566
458 66 453
459 66 761
460 66 760
461 66 92
462 66 212
463 66 686
464 65 788
465 65 211
466 65 263
467 65 982
468 65 961
469 65 439
470 65 27
471 65 218
472 65 73
473 65 831
474 65 546
475 65 70
476 65 443
477 65 309
478 65 528
479 65 994
480 65 503
481 65 749
482 65 779
483 65 255
484 65 941
485 65 731
486 64 395
487 64 823
488 64 793
489 64 356
490 64 591
491 64 921
492 64 828
493 64 278
494 64 520
495 64 269
496 63 696
497 63 384
498 63 580
499 63 406
500 63 642
501 63 404
502 63 126
503 63 238
504 63 107
505 63 775
506 63 54
507 63 964
508 63 596
509 62 701
510 62 160
511 62 70
512 62 765
513 62 88
514 62 276
515 62 301
516 62 760
517 62 863
518 62 697
519 62 644
520 61 207
521 61 764
522 61 916
523 61 228
524 61 100
525 61 953
526 61 110
527 61 34
528 61 301
529 61 707
530 61 924
531 61 41
532 61 925
533 61 28
534 61 64
535 61 392
536 61 170
537 61 637
538 61 563
539 61 393
540 61 640
541 61 384
542 60 941
543 60 89
544 60 736
545 60 996
546 60 322
547 60 739
548 60 658
549 60 950
550 59 116
551 59 65
552 59 566
553 59 615
554 59 506
555 59 36
556 59 150
557 59 29
558 59 755
559 58 396
560 58 650
561 58 110
562 58 651
563 58 236
564 58 55
565 58 336
566 58 396
567 58 733
568 58 200
569 58 641
570 58 403
571 57 139
572 57 992
573 57 543
574 57 578
575 57 488
576 57 343
577 57 630
578 57 567
579 57 972
580 57 11
581 57 786
582 57 680
583 57 571
584 57 715
585 57 807
586 57 248
587 57 982
588 57 38
589 57 962
590 57 145
591 57 512
592 56 591
593 56 666
594 56 464
595 56 378
596 56 612
597 56 570
598 56 884
599 56 709
600 56 132
601 56 415
602 56 365
603 56 349
604 56 356
605 55 692
606 55 989
607 55 758
608 55 240
609 55 765
610 55 638
611 55 12
612 55 617
613 55 169
614 55 761
615 55 887
616 55 5
617 55 679
618 54 944
619 54 239
620 54 962
621 53 734
622 53 816
623 53 566
624 53 144
625 53 609
626 53 263
627 53 339
628 53 944
629 53 553
630 53 651
631 53 933
632 52 618
633 52 607
634 52 342
635 52 887
636 52 789
637 52 599
638 52 333
639 52 846
640 52 19
641 52 446
642 52 838
643 52 450
644 52 95
645 52 358
646 52 687
647 52 201
648 52 758
649 51 436
650 51 828
651 51 662
652 51 243
653 51 668
654 51 663
655 51 707
656 51 347
657 51 175
658 51 432
659 51 4
660 51 482
661 51 301
662 51 903
663 50 728
664 50 189
665 50 833
666 50 76
667 50 91
668 50 393
669 50 379
670 50 894
671 50 108
672 49 371
673 49 269
674 49 594
675 49 928
676 49 645
677 49 214
678 49 589
679 48 738
680 48 415
681 48 729
682 48 242
683 48 653
684 48 464
685 48 632
686 47 158
687 47 856
688 47 939
689 47 797
690 47 623
691 47 5
692 47 211
693 47 826
694 47 380
695 47 282
696 47 579
697 47 407
698 47 51
699 47 996
700 47 942
701 47 66
702 47 623
703 47 924
704 47 217
705 47 238
706 47 493
707 47 763
708 46 599
709 46 999
710 46 708
711 46 974
712 46 918
713 46 313
714 46 322
715 46 733
716 46 764
717 46 138
718 46 228
719 46 843
720 45 488
721 45 509
722 45 308
723 45 111
724 45 341
725 45 202
726 45 665
727 45 238
728 45 175
729 45 858
730 45 467
731 45 421
732 45 611
733 45 360
734 45 539
735 45 694
736 45 658
737 45 593
738 44 141
739 44 520
740 44 773
741 44 154
742 44 13
743 44 781
744 44 977
745 44 844
746 44 462
747 44 913
748 44 807
749 44 582
750 44 920
751 43 677
752 43 879
753 43 307
754 43 426
755 43 583
756 43 123
757 43 663
758 43 694
759 43 284
760 43 960
761 42 531
762 42 400
763 42 919
764 42 502
765 42 59
766 42 636
767 41 136
768 41 169
769 41 507
770 41 488
771 41 946
772 41 859
773 41 425
774 41 787
775 41 647
776 41 699
777 41 721
778 41 772
779 41 189
780 41 799
781 41 253
782 41 54
783 41 59
784 41 362
785 41 81
786 41 911
787 41 477
788 41 75
789 41 925
790 40 424
791 40 321
792 40 725
793 40 834
794 40 858
795 40 808
796 40 939
797 40 468
798 40 195
799 40 873
800 40 377
801 40 682
802 40 421
803 39 825
804 39 779
805 39 667
806 39 475
807 39 597
808 38 477
809 38 184
810 38 410
811 38 423
812 38 880
813 38 659
814 38 171
815 38 400
816 38 418
817 38 556
818 38 767
819 37 745
820 37 655
821 37 433
822 37 219
823 37 625
824 37 67
825 37 882
826 37 933
827 37 716
828 37 801
829 37 940
830 36 161
831 36 112
832 36 486
833 36 799
834 36 213
835 36 568
836 36 920
837 36 988
838 35 494
839 35 437
840 35 891
841 35 476
842 35 235
843 35 561
844 35 495
845 35 672
846 35 808
847 35 301
848 35 80
849 35 700
850 34 657
851 34 206
852 34 555
853 34 688
854 34 984
855 34 206
856 34 629
857 34 421
858 34 73
859 34 533
860 34 639
861 34 255
862 34 941
863 34 160
864 34 155
865 33 49
866 33 309
867 33 706
868 33 742
869 33 576
870 33 422
871 33 928
872 33 738
873 33 514
874 33 222
875 33 111
876 32 4
877 32 923
878 32 735
879 32 434
880 32 1000
881 32 582
882 32 348
883 32 619
884 32 314
885 32 168
886 32 786
887 32 204
888 32 420
889 32 739
890 32 460
891 32 927
892 32 854
893 32 367
894 32 329
895 31 778
896 31 880
897 31 768
898 31 705
899 31 477
900 31 917
901 31 967
902 31 832
903 31 606
904 31 246
905 31 544
906 31 262
907 31 197
908 31 692
909 31 275
910 31 342
911 30 622
912 30 889
913 30 106
914 30 626
915 30 524
916 30 8
917 30 167
918 30 986
919 30 852
920 30 947
921 30 378
922 30 544
923 30 798
924 30 676
925 29 701
926 29 414
927 29 40
928 29 807
929 29 300
930 29 119
931 29 465
932 29 296
933 29 952
934 29 423
935 29 420
936 29 913
937 29 943
938 29 148
939 29 248
940 29 652
941 29 73
942 29 611
943 29 634
944 29 471
945 29 663
946 29 361
947 28 125
948 28 798
949 28 652
950 28 486
951 28 826
952 28 729
953 28 284
954 28 613
955 28 503
956 28 617
957 28 68
958 28 670
959 28 455
960 28 408
961 28 31
962 27 16
963 27 127
964 27 218
965 27 300
966 27 558
967 27 940
968 27 326
969 27 727
970 27 719
971 27 35
972 27 109
973 26 759
974 26 513
975 26 327
976 26 996
977 26 753
978 26 203
979 26 925
980 26 226
981 26 795
982 26 476
983 26 387
984 26 906
985 26 80
986 26 965
987 26 162
988 25 875
989 25 835
990 25 497
991 25 907
992 25 982
993 25 187
994 25 991
995 25 804
996 25 783
997 25 289
998 25 140
999 25 409
1000 25 122
